β1-AsCrSi (centered, aacbabc)          
   1.00000000000000     
     3.6548918986458134    0.0000000000000000    0.0000000000000000
    -1.8274459493229067    3.1652292323132141    0.0000000000000000
     0.0000000000000000    0.0000000000000000   21.9899999999999984
   As   Cr   Si
     4     1     2
Direct
 -0.0000000000000000 -0.0000000000000000  0.2802941626056623
  0.0000000000000000  0.0000000000000000  0.7185332955131200
  0.6666666666666643  0.3333333333333357  0.4369447780712470
  0.3333333333333357  0.6666666666666643  0.5618867129536618
 -0.0000000000000000 -0.0000000000000000  0.4994181345712221
  0.3333333333333357  0.6666666666666643  0.6681396601431395
  0.6666666666666643  0.3333333333333357  0.3306923470509356
 
  0.00000000E+00  0.00000000E+00  0.00000000E+00
  0.00000000E+00  0.00000000E+00  0.00000000E+00
  0.00000000E+00  0.00000000E+00  0.00000000E+00
  0.00000000E+00  0.00000000E+00  0.00000000E+00
  0.00000000E+00  0.00000000E+00  0.00000000E+00
  0.00000000E+00  0.00000000E+00  0.00000000E+00
  0.00000000E+00  0.00000000E+00  0.00000000E+00
