β1-CrGeAs (centered, aacbabc)          
   1.00000000000000     
     3.6313244133067899   -0.0000000000000000    0.0000000000000000
    -1.8156622066533949    3.1448191913063002    0.0000000000000000
     0.0000000000000000    0.0000000000000000   21.9899999999999984
   As   Cr   Ge
     4     1     2
Direct
 -0.0000000000000000  0.0000000000000000  0.2738343670319199
 -0.0000000000000000  0.0000000000000000  0.7249936619390155
  0.6666666666666643  0.3333333333333357  0.4389875368104527
  0.3333333333333357  0.6666666666666643  0.5598451732966375
 -0.0000000000000000  0.0000000000000000  0.4994189642555052
  0.3333333333333357  0.6666666666666643  0.6704731052090807
  0.6666666666666643  0.3333333333333357  0.3283562823663843
 
  0.00000000E+00  0.00000000E+00  0.00000000E+00
  0.00000000E+00  0.00000000E+00  0.00000000E+00
  0.00000000E+00  0.00000000E+00  0.00000000E+00
  0.00000000E+00  0.00000000E+00  0.00000000E+00
  0.00000000E+00  0.00000000E+00  0.00000000E+00
  0.00000000E+00  0.00000000E+00  0.00000000E+00
  0.00000000E+00  0.00000000E+00  0.00000000E+00
