α1                                     
   1.00000000000000     
     3.0656565304057080    0.0000000000000004    0.0000000000000000
    -1.5328282652028482    2.6549364346089961    0.0000000000000000
     0.0000000000000000    0.0000000000000000   21.9900005309999997
   N    Nb   Ge
     4     1     2
Direct
  0.3333333333333357  0.6666666666666643  0.3320266060688727
  0.0000000000000000 -0.0000000000000000  0.4440397858925363
 -0.0000000000000000  0.0000000000000000  0.5559602141074635
  0.3333333333333357  0.6666666666666643  0.6679733939311205
  0.6666666666666643  0.3333333333333357  0.5000000000000000
  0.0000000000000000 -0.0000000000000000  0.3591265268938285
  0.0000000000000000 -0.0000000000000000  0.6408734731061715
 
  0.00000000E+00  0.00000000E+00  0.00000000E+00
  0.00000000E+00  0.00000000E+00  0.00000000E+00
  0.00000000E+00  0.00000000E+00  0.00000000E+00
  0.00000000E+00  0.00000000E+00  0.00000000E+00
  0.00000000E+00  0.00000000E+00  0.00000000E+00
  0.00000000E+00  0.00000000E+00  0.00000000E+00
  0.00000000E+00  0.00000000E+00  0.00000000E+00
