α1                                     
   1.00000000000000     
     2.9590979461168767    0.0000000000000003    0.0000000000000000
    -1.4795489730584330    2.5626539936235644    0.0000000000000000
     0.0000000000000000    0.0000000000000000   21.9900005309999997
   N    Nb   Si
     4     1     2
Direct
  0.3333333333333357  0.6666666666666643  0.3408067404780782
 -0.0000000000000000 -0.0000000000000000  0.4423529089774628
 -0.0000000000000000 -0.0000000000000000  0.5576470910225373
  0.3333333333333357  0.6666666666666643  0.6591932595219145
  0.6666666666666643  0.3333333333333357  0.5000000000000000
  0.0000000000000000  0.0000000000000000  0.3631400758065764
 -0.0000000000000000  0.0000000000000000  0.6368599241934240
 
  0.00000000E+00  0.00000000E+00  0.00000000E+00
  0.00000000E+00  0.00000000E+00  0.00000000E+00
  0.00000000E+00  0.00000000E+00  0.00000000E+00
  0.00000000E+00  0.00000000E+00  0.00000000E+00
  0.00000000E+00  0.00000000E+00  0.00000000E+00
  0.00000000E+00  0.00000000E+00  0.00000000E+00
  0.00000000E+00  0.00000000E+00  0.00000000E+00
