α1                                     
   1.00000000000000     
     3.0682317871316847    0.0000000000000004    0.0000000000000000
    -1.5341158935658366    2.6571666723549576    0.0000000000000000
     0.0000000000000000    0.0000000000000000   21.9900005309999997
   N    Ta   Ge
     4     1     2
Direct
  0.3333333333333357  0.6666666666666643  0.3320842133808385
  0.0000000000000000 -0.0000000000000000  0.4439516168121407
 -0.0000000000000000 -0.0000000000000000  0.5560483831878593
  0.3333333333333357  0.6666666666666643  0.6679157866191544
  0.6666666666666643  0.3333333333333357  0.5000000000000000
 -0.0000000000000000  0.0000000000000000  0.3590106329644020
 -0.0000000000000000  0.0000000000000000  0.6409893670355981
 
  0.00000000E+00  0.00000000E+00  0.00000000E+00
  0.00000000E+00  0.00000000E+00  0.00000000E+00
  0.00000000E+00  0.00000000E+00  0.00000000E+00
  0.00000000E+00  0.00000000E+00  0.00000000E+00
  0.00000000E+00  0.00000000E+00  0.00000000E+00
  0.00000000E+00  0.00000000E+00  0.00000000E+00
  0.00000000E+00  0.00000000E+00  0.00000000E+00
